\ENCODING=ISO-8859-1
\Problem name: ilog.cplex

Minimize
 obj1: 96951 x1 + 91491 x2 + 90107 x3 + 97850 x4 + 90163 x5 + 92644 x6
       + 108162 x7 + 103797 x8 + 109926 x9 + 108257 x10 + 92126 x11 + 98141 x12
       + 108327 x13 + 94182 x14 + 93645 x15 + 90437 x16 + 107343 x17
       + 99262 x18 + 99989 x19 + 108966 x20 + 96407 x21 + 106190 x22
       + 93423 x23 + 106293 x24 + 98711 x25 + 96197 x26 + 95438 x27 + 91341 x28
       + 98705 x29 + 100613 x30 + 91342 x31 + 97001 x32 + 95793 x33
       + 106878 x34 + 98592 x35 + 104610 x36 + 97344 x37 + 91776 x38
       + 95657 x39 + 109632 x40 + 107929 x41 + 100451 x42 + 107325 x43
       + 106497 x44 + 91063 x45 + 96202 x46 + 107039 x47 + 94786 x48
       + 94785 x49 + 93092 x50 + 91091 x51 + 104361 x52 + 98148 x53
       + 100939 x54 + 101780 x55 + 107674 x56 + 102702 x57 + 104518 x58
       + 101538 x59 + 106455 x60 + 92833 x61 + 101790 x62 + 98734 x63
       + 105188 x64 + 92159 x65 + 106726 x66 + 91572 x67 + 93056 x68
       + 108854 x69 + 95223 x70 + 104076 x71 + 99011 x72 + 99779 x73
       + 97156 x74 + 99099 x75 + 93129 x76 + 101041 x77 + 98491 x78 + 99314 x79
       + 90374 x80 + 103438 x81 + 103040 x82 + 99809 x83 + 93777 x84
       + 101731 x85 + 94771 x86 + 109204 x87 + 100693 x88 + 107815 x89
       + 108440 x90 + 90147 x91 + 107949 x92 + 109567 x93 + 98835 x94
       + 104589 x95 + 109558 x96 + 99554 x97 + 97096 x98 + 104410 x99
       + 104133 x100 + 98187 x101 + 99894 x102 + 97944 x103 + 106059 x104
       + 106252 x105 + 93923 x106 + 95914 x107 + 95069 x108 + 109057 x109
       + 98603 x110 + 95265 x111 + 98314 x112 + 96956 x113 + 105464 x114
       + 99301 x115 + 107925 x116 + 97413 x117 + 98038 x118 + 90421 x119
       + 104122 x120 + 102515 x121 + 95774 x122 + 97672 x123 + 105494 x124
       + 95349 x125 + 101161 x126 + 107122 x127 + 90563 x128 + 102523 x129
       + 93623 x130 + 109901 x131 + 95943 x132 + 94181 x133 + 102344 x134
       + 97191 x135 + 97780 x136 + 92607 x137 + 109448 x138 + 101446 x139
       + 105246 x140 + 95795 x141 + 104779 x142 + 108758 x143 + 97518 x144
       + 93353 x145 + 94068 x146 + 108575 x147 + 98982 x148 + 108693 x149
       + 93334 x150 + 104138 x151 + 97325 x152 + 105729 x153 + 109429 x154
       + 96677 x155 + 97408 x156 + 103537 x157 + 101590 x158 + 90648 x159
       + 91672 x160 + 99627 x161 + 95133 x162 + 97496 x163 + 94390 x164
       + 109059 x165 + 101367 x166 + 91820 x167 + 90348 x168 + 104691 x169
       + 97842 x170 + 94645 x171 + 107420 x172 + 101102 x173 + 98957 x174
       + 96709 x175 + 96769 x176 + 108454 x177 + 96327 x178 + 106041 x179
       + 101429 x180 + 108882 x181 + 105208 x182 + 90857 x183 + 91522 x184
       + 97509 x185 + 106126 x186 + 106144 x187 + 97541 x188 + 100399 x189
       + 109291 x190 + 100308 x191 + 101860 x192 + 92540 x193 + 93485 x194
       + 96851 x195 + 93062 x196 + 90365 x197 + 100794 x198 + 95325 x199
       + 107672 x200 + 99537 x201 + 98353 x202 + 103656 x203 + 100136 x204
       + 108365 x205 + 105917 x206 + 101024 x207 + 109641 x208 + 105824 x209
       + 107254 x210 + 100137 x211 + 100029 x212 + 100121 x213 + 90690 x214
       + 96464 x215 + 109977 x216 + 98143 x217 + 97113 x218 + 108035 x219
       + 102137 x220 + 97977 x221 + 91989 x222 + 96465 x223 + 104314 x224
       + 94058 x225 + 94431 x226 + 99351 x227 + 91227 x228 + 102190 x229
       + 108798 x230 + 95896 x231 + 92352 x232 + 92332 x233 + 101994 x234
       + 93598 x235 + 106833 x236 + 93325 x237 + 107899 x238 + 95406 x239
       + 92531 x240 + 105614 x241 + 99334 x242 + 103968 x243 + 93056 x244
       + 105537 x245 + 107480 x246 + 102407 x247 + 93973 x248 + 107923 x249
       + 108868 x250 + 100842 x251 + 101581 x252 + 92467 x253 + 93858 x254
       + 107826 x255 + 91816 x256 + 99661 x257 + 105315 x258 + 102799 x259
       + 105637 x260 + 94299 x261 + 91511 x262 + 91014 x263 + 98556 x264
       + 98161 x265 + 107268 x266 + 106341 x267 + 101989 x268 + 96790 x269
       + 96021 x270 + 94518 x271 + 103491 x272 + 103030 x273 + 94166 x274
       + 102140 x275 + 96090 x276 + 99341 x277 + 95726 x278 + 95412 x279
       + 94745 x280 + 94495 x281 + 95442 x282 + 98475 x283 + 97105 x284
       + 103830 x285 + 107872 x286 + 107546 x287 + 90395 x288 + 106527 x289
       + 95034 x290 + 104161 x291 + 96631 x292 + 108184 x293 + 105820 x294
       + 98502 x295 + 104291 x296 + 102500 x297 + 96646 x298 + 102052 x299
       + 96172 x300 + 90357 x301 + 94134 x302 + 102814 x303 + 105698 x304
       + 104064 x305 + 97715 x306 + 97585 x307 + 91384 x308 + 108573 x309
       + 100071 x310 + 102238 x311 + 96742 x312 + 107563 x313 + 97141 x314
       + 98743 x315 + 102590 x316 + 100835 x317 + 105388 x318 + 104827 x319
       + 105621 x320 + 90787 x321 + 95550 x322 + 96594 x323 + 104481 x324
       + 109913 x325 + 108395 x326 + 108919 x327 + 103163 x328 + 94229 x329
       + 93775 x330 + 102646 x331 + 93822 x332 + 99689 x333 + 106032 x334
       + 90119 x335 + 95649 x336 + 96529 x337 + 91174 x338 + 108772 x339
       + 101647 x340 + 99894 x341 + 94201 x342 + 106209 x343 + 100920 x344
       + 104222 x345 + 98617 x346 + 109646 x347 + 100544 x348 + 103539 x349
       + 104360 x350 + 95270 x351 + 92302 x352 + 93735 x353 + 90249 x354
       + 102704 x355 + 107732 x356 + 108591 x357 + 106295 x358 + 98003 x359
       + 99789 x360 + 96010 x361 + 93696 x362 + 103267 x363 + 92977 x364
       + 90668 x365 + 101576 x366 + 97264 x367 + 100847 x368 + 101616 x369
       + 96339 x370 + 91264 x371 + 96345 x372 + 95675 x373 + 100582 x374
       + 98229 x375 + 102588 x376 + 99166 x377 + 99676 x378 + 98009 x379
       + 104589 x380 + 97975 x381 + 103681 x382 + 91067 x383 + 108108 x384
       + 98646 x385 + 103201 x386 + 93737 x387 + 93087 x388 + 96488 x389
       + 94355 x390 + 99148 x391 + 105999 x392 + 100604 x393 + 90286 x394
       + 109653 x395 + 107972 x396 + 90313 x397 + 104422 x398 + 99017 x399
       + 103710 x400 + 99959 x401 + 96014 x402 + 92859 x403 + 90967 x404
       + 101712 x405 + 102961 x406 + 102297 x407 + 104246 x408 + 109330 x409
       + 109163 x410 + 108915 x411 + 104034 x412 + 90413 x413 + 107023 x414
       + 102113 x415 + 99404 x416 + 106527 x417 + 97705 x418 + 95229 x419
       + 104249 x420 + 96785 x421 + 105769 x422 + 96682 x423 + 107671 x424
       + 97797 x425 + 99734 x426 + 91652 x427 + 99968 x428 + 92652 x429
       + 102108 x430 + 103163 x431 + 101852 x432 + 90362 x433 + 103243 x434
       + 105477 x435 + 103115 x436 + 101593 x437 + 104770 x438 + 92447 x439
       + 106220 x440 + 96540 x441 + 90449 x442 + 98779 x443 + 90156 x444
       + 106409 x445 + 94935 x446 + 93132 x447 + 100358 x448 + 101301 x449
       + 94245 x450 + 95667 x451 + 108030 x452 + 102861 x453 + 102683 x454
       + 99379 x455 + 100454 x456 + 104178 x457 + 100407 x458 + 99228 x459
       + 106427 x460 + 91221 x461 + 99539 x462 + 105927 x463 + 101555 x464
       + 103514 x465 + 100544 x466 + 92348 x467 + 100281 x468 + 99214 x469
       + 106064 x470 + 97634 x471 + 103290 x472 + 102824 x473 + 98633 x474
       + 104543 x475 + 97574 x476 + 98141 x477 + 97549 x478 + 102720 x479
       + 109828 x480 + 104759 x481 + 92222 x482 + 109542 x483 + 91019 x484
       + 93222 x485 + 96821 x486 + 99704 x487 + 92860 x488 + 101252 x489
       + 94197 x490 + 94911 x491 + 105316 x492 + 91497 x493 + 95827 x494
       + 105841 x495 + 98396 x496 + 99839 x497 + 98912 x498 + 99948 x499
       + 177138 x500 + 42119 x501 + 38148 x502 + 36201 x503 + 41446 x504
       + 37117 x505 + 37361 x506 + 36213 x507 + 38134 x508 + 36920 x509
       + 37882 x510 + 39094 x511 + 37710 x512 + 42723 x513 + 38504 x514
       + 39845 x515 + 39011 x516 + 42545 x517 + 38522 x518 + 43125 x519
       + 43656 x520 + 36776 x521 + 40007 x522 + 38392 x523 + 39901 x524
       + 37135 x525 + 40634 x526 + 42829 x527 + 36146 x528 + 41468 x529
       + 43322 x530 + 43749 x531 + 37585 x532 + 41580 x533 + 38091 x534
       + 40291 x535 + 42967 x536 + 36679 x537 + 39373 x538 + 40994 x539
       + 36721 x540 + 41245 x541 + 36720 x542 + 43446 x543 + 36694 x544
       + 41067 x545 + 42160 x546 + 40496 x547 + 41509 x548 + 36884 x549
       + 58863 x550
Subject To
 c1:   x4 + x6 + x20 - x25 + x33 - x37 + x44 + x48 - x49  = 0
 c2:   x54 + x56 + x70 - x75 + x83 - x87 + x94 + x98 - x99  = 0
 c3:   x104 + x106 + x120 - x125 + x133 - x137 + x144 + x148 - x149  = 0
 c4:   x154 + x156 + x170 - x175 + x183 - x187 + x194 + x198 - x199  = 1
 c5:   x204 + x206 + x220 - x225 + x233 - x237 + x244 + x248 - x249  = 0
 c6:   x254 + x256 + x270 - x275 + x283 - x287 + x294 + x298 - x299  = 0
 c7:   x304 + x306 + x320 - x325 + x333 - x337 + x344 + x348 - x349  = 0
 c8:   x354 + x356 + x370 - x375 + x383 - x387 + x394 + x398 - x399  = 0
 c9:   x404 + x406 + x420 - x425 + x433 - x437 + x444 + x448 - x449  = 0
 c10:  x454 + x456 + x470 - x475 + x483 - x487 + x494 + x498 - x499  = 0
 c11:  x2 - x9 - x14 - x22 - x35 - x36 + x46 + x49  = 0
 c12:  x52 - x59 - x64 - x72 - x85 - x86 + x96 + x99  = 0
 c13:  x102 - x109 - x114 - x122 - x135 - x136 + x146 + x149  = 0
 c14:  x152 - x159 - x164 - x172 - x185 - x186 + x196 + x199  = 0
 c15:  x202 - x209 - x214 - x222 - x235 - x236 + x246 + x249  = 0
 c16:  x252 - x259 - x264 - x272 - x285 - x286 + x296 + x299  = -1
 c17:  x302 - x309 - x314 - x322 - x335 - x336 + x346 + x349  = 0
 c18:  x352 - x359 - x364 - x372 - x385 - x386 + x396 + x399  = 0
 c19:  x402 - x409 - x414 - x422 - x435 - x436 + x446 + x449  = 0
 c20:  x452 - x459 - x464 - x472 - x485 - x486 + x496 + x499  = 1
 c21:  - x6 - x7 + x10 + x13 + x14 + x15 + x29 - x39 + x40 + x43 - x46 - x47
        = 0
 c22:  - x56 - x57 + x60 + x63 + x64 + x65 + x79 - x89 + x90 + x93 - x96 - x97
        = 0
 c23:  - x106 - x107 + x110 + x113 + x114 + x115 + x129 - x139 + x140 + x143
       - x146 - x147  = 0
 c24:  - x156 - x157 + x160 + x163 + x164 + x165 + x179 - x189 + x190 + x193
       - x196 - x197  = 0
 c25:  - x206 - x207 + x210 + x213 + x214 + x215 + x229 - x239 + x240 + x243
       - x246 - x247  = 0
 c26:  - x256 - x257 + x260 + x263 + x264 + x265 + x279 - x289 + x290 + x293
       - x296 - x297  = 0
 c27:  - x306 - x307 + x310 + x313 + x314 + x315 + x329 - x339 + x340 + x343
       - x346 - x347  = 0
 c28:  - x356 - x357 + x360 + x363 + x364 + x365 + x379 - x389 + x390 + x393
       - x396 - x397  = 0
 c29:  - x406 - x407 + x410 + x413 + x414 + x415 + x429 - x439 + x440 + x443
       - x446 - x447  = 0
 c30:  - x456 - x457 + x460 + x463 + x464 + x465 + x479 - x489 + x490 + x493
       - x496 - x497  = 0
 c31:  - x27 + x30 + x36 - x44  = 1
 c32:  - x77 + x80 + x86 - x94  = 0
 c33:  - x127 + x130 + x136 - x144  = 0
 c34:  - x177 + x180 + x186 - x194  = 0
 c35:  - x227 + x230 + x236 - x244  = 0
 c36:  - x277 + x280 + x286 - x294  = 0
 c37:  - x327 + x330 + x336 - x344  = 0
 c38:  - x377 + x380 + x386 - x394  = 0
 c39:  - x427 + x430 + x436 - x444  = 0
 c40:  - x477 + x480 + x486 - x494  = 0
 c41:  - x18 - x23 + x24 + x28 - x40 - x42 + x47  = 0
 c42:  - x68 - x73 + x74 + x78 - x90 - x92 + x97  = 0
 c43:  - x118 - x123 + x124 + x128 - x140 - x142 + x147  = 1
 c44:  - x168 - x173 + x174 + x178 - x190 - x192 + x197  = 0
 c45:  - x218 - x223 + x224 + x228 - x240 - x242 + x247  = -1
 c46:  - x268 - x273 + x274 + x278 - x290 - x292 + x297  = 0
 c47:  - x318 - x323 + x324 + x328 - x340 - x342 + x347  = 0
 c48:  - x368 - x373 + x374 + x378 - x390 - x392 + x397  = 0
 c49:  - x418 - x423 + x424 + x428 - x440 - x442 + x447  = 0
 c50:  - x468 - x473 + x474 + x478 - x490 - x492 + x497  = 0
 c51:  - x4 - x5 + x19 + x25 - x45  = 0
 c52:  - x54 - x55 + x69 + x75 - x95  = 0
 c53:  - x104 - x105 + x119 + x125 - x145  = 0
 c54:  - x154 - x155 + x169 + x175 - x195  = 0
 c55:  - x204 - x205 + x219 + x225 - x245  = 0
 c56:  - x254 - x255 + x269 + x275 - x295  = 1
 c57:  - x304 - x305 + x319 + x325 - x345  = -1
 c58:  - x354 - x355 + x369 + x375 - x395  = 0
 c59:  - x404 - x405 + x419 + x425 - x445  = 0
 c60:  - x454 - x455 + x469 + x475 - x495  = 0
 c61:  - x13 - x31  = 0
 c62:  - x63 - x81  = 0
 c63:  - x113 - x131  = 0
 c64:  - x163 - x181  = 0
 c65:  - x213 - x231  = 0
 c66:  - x263 - x281  = 0
 c67:  - x313 - x331  = 0
 c68:  - x363 - x381  = 0
 c69:  - x413 - x431  = 0
 c70:  - x463 - x481  = 0
 c71:  - x10 + x12 - x17 + x22 - x30  = 0
 c72:  - x60 + x62 - x67 + x72 - x80  = 0
 c73:  - x110 + x112 - x117 + x122 - x130  = 0
 c74:  - x160 + x162 - x167 + x172 - x180  = 0
 c75:  - x210 + x212 - x217 + x222 - x230  = 0
 c76:  - x260 + x262 - x267 + x272 - x280  = 0
 c77:  - x310 + x312 - x317 + x322 - x330  = 0
 c78:  - x360 + x362 - x367 + x372 - x380  = -1
 c79:  - x410 + x412 - x417 + x422 - x430  = 0
 c80:  - x460 + x462 - x467 + x472 - x480  = 0
 c81:  - x1 + x16 - x19 - x26 - x28 + x32 - x34 - x50  = 0
 c82:  - x51 + x66 - x69 - x76 - x78 + x82 - x84 - x100  = 0
 c83:  - x101 + x116 - x119 - x126 - x128 + x132 - x134 - x150  = 0
 c84:  - x151 + x166 - x169 - x176 - x178 + x182 - x184 - x200  = 0
 c85:  - x201 + x216 - x219 - x226 - x228 + x232 - x234 - x250  = 0
 c86:  - x251 + x266 - x269 - x276 - x278 + x282 - x284 - x300  = 0
 c87:  - x301 + x316 - x319 - x326 - x328 + x332 - x334 - x350  = 0
 c88:  - x351 + x366 - x369 - x376 - x378 + x382 - x384 - x400  = 0
 c89:  - x401 + x416 - x419 - x426 - x428 + x432 - x434 - x450  = 0
 c90:  - x451 + x466 - x469 - x476 - x478 + x482 - x484 - x500  = 0
 c91:  - x11 - x21 + x34 - x43  = -1
 c92:  - x61 - x71 + x84 - x93  = -1
 c93:  - x111 - x121 + x134 - x143  = 0
 c94:  - x161 - x171 + x184 - x193  = 0
 c95:  - x211 - x221 + x234 - x243  = 0
 c96:  - x261 - x271 + x284 - x293  = 0
 c97:  - x311 - x321 + x334 - x343  = 0
 c98:  - x361 - x371 + x384 - x393  = 0
 c99:  - x411 - x421 + x434 - x443  = 0
 c100: - x461 - x471 + x484 - x493  = 0
 c101: - x2 + x3 + x7 + x23 + x26 - x29 - x33 + x38 + x45  = 0
 c102: - x52 + x53 + x57 + x73 + x76 - x79 - x83 + x88 + x95  = 1
 c103: - x102 + x103 + x107 + x123 + x126 - x129 - x133 + x138 + x145  = -1
 c104: - x152 + x153 + x157 + x173 + x176 - x179 - x183 + x188 + x195  = -1
 c105: - x202 + x203 + x207 + x223 + x226 - x229 - x233 + x238 + x245  = 1
 c106: - x252 + x253 + x257 + x273 + x276 - x279 - x283 + x288 + x295  = 0
 c107: - x302 + x303 + x307 + x323 + x326 - x329 - x333 + x338 + x345  = 0
 c108: - x352 + x353 + x357 + x373 + x376 - x379 - x383 + x388 + x395  = 0
 c109: - x402 + x403 + x407 + x423 + x426 - x429 - x433 + x438 + x445  = 1
 c110: - x452 + x453 + x457 + x473 + x476 - x479 - x483 + x488 + x495  = -1
 c111: x5 + x8 - x24 - x32 + x50  = 0
 c112: x55 + x58 - x74 - x82 + x100  = 0
 c113: x105 + x108 - x124 - x132 + x150  = 0
 c114: x155 + x158 - x174 - x182 + x200  = 0
 c115: x205 + x208 - x224 - x232 + x250  = 0
 c116: x255 + x258 - x274 - x282 + x300  = 0
 c117: x305 + x308 - x324 - x332 + x350  = 1
 c118: x355 + x358 - x374 - x382 + x400  = 0
 c119: x405 + x408 - x424 - x432 + x450  = -1
 c120: x455 + x458 - x474 - x482 + x500  = 0
 c121: - x3 + x9 - x12 + x17 - x20 + x27 - x41  = 0
 c122: - x53 + x59 - x62 + x67 - x70 + x77 - x91  = 0
 c123: - x103 + x109 - x112 + x117 - x120 + x127 - x141  = 0
 c124: - x153 + x159 - x162 + x167 - x170 + x177 - x191  = 0
 c125: - x203 + x209 - x212 + x217 - x220 + x227 - x241  = 0
 c126: - x253 + x259 - x262 + x267 - x270 + x277 - x291  = 0
 c127: - x303 + x309 - x312 + x317 - x320 + x327 - x341  = 0
 c128: - x353 + x359 - x362 + x367 - x370 + x377 - x391  = 0
 c129: - x403 + x409 - x412 + x417 - x420 + x427 - x441  = 0
 c130: - x453 + x459 - x462 + x467 - x470 + x477 - x491  = 0
 c131: - x8 - x15 + x18 + x21 + x35 + x37 - x48  = 0
 c132: - x58 - x65 + x68 + x71 + x85 + x87 - x98  = 0
 c133: - x108 - x115 + x118 + x121 + x135 + x137 - x148  = 0
 c134: - x158 - x165 + x168 + x171 + x185 + x187 - x198  = 0
 c135: - x208 - x215 + x218 + x221 + x235 + x237 - x248  = 0
 c136: - x258 - x265 + x268 + x271 + x285 + x287 - x298  = 0
 c137: - x308 - x315 + x318 + x321 + x335 + x337 - x348  = 0
 c138: - x358 - x365 + x368 + x371 + x385 + x387 - x398  = 1
 c139: - x408 - x415 + x418 + x421 + x435 + x437 - x448  = 0
 c140: - x458 - x465 + x468 + x471 + x485 + x487 - x498  = 0
 c141: x1 + x11 - x16 + x31 - x38 + x39 + x41 + x42  = 0
 c142: x51 + x61 - x66 + x81 - x88 + x89 + x91 + x92  = 0
 c143: x101 + x111 - x116 + x131 - x138 + x139 + x141 + x142  = 0
 c144: x151 + x161 - x166 + x181 - x188 + x189 + x191 + x192  = 0
 c145: x201 + x211 - x216 + x231 - x238 + x239 + x241 + x242  = 0
 c146: x251 + x261 - x266 + x281 - x288 + x289 + x291 + x292  = 0
 c147: x301 + x311 - x316 + x331 - x338 + x339 + x341 + x342  = 0
 c148: x351 + x361 - x366 + x381 - x388 + x389 + x391 + x392  = 0
 c149: x401 + x411 - x416 + x431 - x438 + x439 + x441 + x442  = 0
 c150: x451 + x461 - x466 + x481 - x488 + x489 + x491 + x492  = 0
 c151: 4 x1 + 4 x51 + 4 x101 + 4 x151 + 4 x201 + 4 x251 + 4 x301 + 4 x351
       + 4 x401 + 4 x451 - 5 x501 <= 0
 c152: 4 x2 + 4 x52 + 4 x102 + 4 x152 + 4 x202 + 4 x252 + 4 x302 + 4 x352
       + 4 x402 + 4 x452 - 5 x502 <= 0
 c153: 4 x3 + 4 x53 + 4 x103 + 4 x153 + 4 x203 + 4 x253 + 4 x303 + 4 x353
       + 4 x403 + 4 x453 - 5 x503 <= 0
 c154: 4 x4 + 4 x54 + 4 x104 + 4 x154 + 4 x204 + 4 x254 + 4 x304 + 4 x354
       + 4 x404 + 4 x454 - 5 x504 <= 0
 c155: 4 x5 + 4 x55 + 4 x105 + 4 x155 + 4 x205 + 4 x255 + 4 x305 + 4 x355
       + 4 x405 + 4 x455 - 5 x505 <= 0
 c156: 4 x6 + 4 x56 + 4 x106 + 4 x156 + 4 x206 + 4 x256 + 4 x306 + 4 x356
       + 4 x406 + 4 x456 - 5 x506 <= 0
 c157: 4 x7 + 4 x57 + 4 x107 + 4 x157 + 4 x207 + 4 x257 + 4 x307 + 4 x357
       + 4 x407 + 4 x457 - 5 x507 <= 0
 c158: 4 x8 + 4 x58 + 4 x108 + 4 x158 + 4 x208 + 4 x258 + 4 x308 + 4 x358
       + 4 x408 + 4 x458 - 5 x508 <= 0
 c159: 4 x9 + 4 x59 + 4 x109 + 4 x159 + 4 x209 + 4 x259 + 4 x309 + 4 x359
       + 4 x409 + 4 x459 - 5 x509 <= 0
 c160: 4 x10 + 4 x60 + 4 x110 + 4 x160 + 4 x210 + 4 x260 + 4 x310 + 4 x360
       + 4 x410 + 4 x460 - 5 x510 <= 0
 c161: 4 x11 + 4 x61 + 4 x111 + 4 x161 + 4 x211 + 4 x261 + 4 x311 + 4 x361
       + 4 x411 + 4 x461 - 5 x511 <= 0
 c162: 4 x12 + 4 x62 + 4 x112 + 4 x162 + 4 x212 + 4 x262 + 4 x312 + 4 x362
       + 4 x412 + 4 x462 - 5 x512 <= 0
 c163: 4 x13 + 4 x63 + 4 x113 + 4 x163 + 4 x213 + 4 x263 + 4 x313 + 4 x363
       + 4 x413 + 4 x463 - 5 x513 <= 0
 c164: 4 x14 + 4 x64 + 4 x114 + 4 x164 + 4 x214 + 4 x264 + 4 x314 + 4 x364
       + 4 x414 + 4 x464 - 5 x514 <= 0
 c165: 4 x15 + 4 x65 + 4 x115 + 4 x165 + 4 x215 + 4 x265 + 4 x315 + 4 x365
       + 4 x415 + 4 x465 - 5 x515 <= 0
 c166: 4 x16 + 4 x66 + 4 x116 + 4 x166 + 4 x216 + 4 x266 + 4 x316 + 4 x366
       + 4 x416 + 4 x466 - 5 x516 <= 0
 c167: 4 x17 + 4 x67 + 4 x117 + 4 x167 + 4 x217 + 4 x267 + 4 x317 + 4 x367
       + 4 x417 + 4 x467 - 5 x517 <= 0
 c168: 4 x18 + 4 x68 + 4 x118 + 4 x168 + 4 x218 + 4 x268 + 4 x318 + 4 x368
       + 4 x418 + 4 x468 - 5 x518 <= 0
 c169: 4 x19 + 4 x69 + 4 x119 + 4 x169 + 4 x219 + 4 x269 + 4 x319 + 4 x369
       + 4 x419 + 4 x469 - 5 x519 <= 0
 c170: 4 x20 + 4 x70 + 4 x120 + 4 x170 + 4 x220 + 4 x270 + 4 x320 + 4 x370
       + 4 x420 + 4 x470 - 5 x520 <= 0
 c171: 4 x21 + 4 x71 + 4 x121 + 4 x171 + 4 x221 + 4 x271 + 4 x321 + 4 x371
       + 4 x421 + 4 x471 - 5 x521 <= 0
 c172: 4 x22 + 4 x72 + 4 x122 + 4 x172 + 4 x222 + 4 x272 + 4 x322 + 4 x372
       + 4 x422 + 4 x472 - 5 x522 <= 0
 c173: 4 x23 + 4 x73 + 4 x123 + 4 x173 + 4 x223 + 4 x273 + 4 x323 + 4 x373
       + 4 x423 + 4 x473 - 5 x523 <= 0
 c174: 4 x24 + 4 x74 + 4 x124 + 4 x174 + 4 x224 + 4 x274 + 4 x324 + 4 x374
       + 4 x424 + 4 x474 - 5 x524 <= 0
 c175: 4 x25 + 4 x75 + 4 x125 + 4 x175 + 4 x225 + 4 x275 + 4 x325 + 4 x375
       + 4 x425 + 4 x475 - 5 x525 <= 0
 c176: 4 x26 + 4 x76 + 4 x126 + 4 x176 + 4 x226 + 4 x276 + 4 x326 + 4 x376
       + 4 x426 + 4 x476 - 5 x526 <= 0
 c177: 4 x27 + 4 x77 + 4 x127 + 4 x177 + 4 x227 + 4 x277 + 4 x327 + 4 x377
       + 4 x427 + 4 x477 - 5 x527 <= 0
 c178: 4 x28 + 4 x78 + 4 x128 + 4 x178 + 4 x228 + 4 x278 + 4 x328 + 4 x378
       + 4 x428 + 4 x478 - 5 x528 <= 0
 c179: 4 x29 + 4 x79 + 4 x129 + 4 x179 + 4 x229 + 4 x279 + 4 x329 + 4 x379
       + 4 x429 + 4 x479 - 5 x529 <= 0
 c180: 4 x30 + 4 x80 + 4 x130 + 4 x180 + 4 x230 + 4 x280 + 4 x330 + 4 x380
       + 4 x430 + 4 x480 - 5 x530 <= 0
 c181: 4 x31 + 4 x81 + 4 x131 + 4 x181 + 4 x231 + 4 x281 + 4 x331 + 4 x381
       + 4 x431 + 4 x481 - 5 x531 <= 0
 c182: 4 x32 + 4 x82 + 4 x132 + 4 x182 + 4 x232 + 4 x282 + 4 x332 + 4 x382
       + 4 x432 + 4 x482 - 5 x532 <= 0
 c183: 4 x33 + 4 x83 + 4 x133 + 4 x183 + 4 x233 + 4 x283 + 4 x333 + 4 x383
       + 4 x433 + 4 x483 - 5 x533 <= 0
 c184: 4 x34 + 4 x84 + 4 x134 + 4 x184 + 4 x234 + 4 x284 + 4 x334 + 4 x384
       + 4 x434 + 4 x484 - 5 x534 <= 0
 c185: 4 x35 + 4 x85 + 4 x135 + 4 x185 + 4 x235 + 4 x285 + 4 x335 + 4 x385
       + 4 x435 + 4 x485 - 5 x535 <= 0
 c186: 4 x36 + 4 x86 + 4 x136 + 4 x186 + 4 x236 + 4 x286 + 4 x336 + 4 x386
       + 4 x436 + 4 x486 - 5 x536 <= 0
 c187: 4 x37 + 4 x87 + 4 x137 + 4 x187 + 4 x237 + 4 x287 + 4 x337 + 4 x387
       + 4 x437 + 4 x487 - 5 x537 <= 0
 c188: 4 x38 + 4 x88 + 4 x138 + 4 x188 + 4 x238 + 4 x288 + 4 x338 + 4 x388
       + 4 x438 + 4 x488 - 5 x538 <= 0
 c189: 4 x39 + 4 x89 + 4 x139 + 4 x189 + 4 x239 + 4 x289 + 4 x339 + 4 x389
       + 4 x439 + 4 x489 - 5 x539 <= 0
 c190: 4 x40 + 4 x90 + 4 x140 + 4 x190 + 4 x240 + 4 x290 + 4 x340 + 4 x390
       + 4 x440 + 4 x490 - 5 x540 <= 0
 c191: 4 x41 + 4 x91 + 4 x141 + 4 x191 + 4 x241 + 4 x291 + 4 x341 + 4 x391
       + 4 x441 + 4 x491 - 5 x541 <= 0
 c192: 4 x42 + 4 x92 + 4 x142 + 4 x192 + 4 x242 + 4 x292 + 4 x342 + 4 x392
       + 4 x442 + 4 x492 - 5 x542 <= 0
 c193: 4 x43 + 4 x93 + 4 x143 + 4 x193 + 4 x243 + 4 x293 + 4 x343 + 4 x393
       + 4 x443 + 4 x493 - 5 x543 <= 0
 c194: 4 x44 + 4 x94 + 4 x144 + 4 x194 + 4 x244 + 4 x294 + 4 x344 + 4 x394
       + 4 x444 + 4 x494 - 5 x544 <= 0
 c195: 4 x45 + 4 x95 + 4 x145 + 4 x195 + 4 x245 + 4 x295 + 4 x345 + 4 x395
       + 4 x445 + 4 x495 - 5 x545 <= 0
 c196: 4 x46 + 4 x96 + 4 x146 + 4 x196 + 4 x246 + 4 x296 + 4 x346 + 4 x396
       + 4 x446 + 4 x496 - 5 x546 <= 0
 c197: 4 x47 + 4 x97 + 4 x147 + 4 x197 + 4 x247 + 4 x297 + 4 x347 + 4 x397
       + 4 x447 + 4 x497 - 5 x547 <= 0
 c198: 4 x48 + 4 x98 + 4 x148 + 4 x198 + 4 x248 + 4 x298 + 4 x348 + 4 x398
       + 4 x448 + 4 x498 - 5 x548 <= 0
 c199: 4 x49 + 4 x99 + 4 x149 + 4 x199 + 4 x249 + 4 x299 + 4 x349 + 4 x399
       + 4 x449 + 4 x499 - 5 x549 <= 0
 c200: 4 x50 + 4 x100 + 4 x150 + 4 x200 + 4 x250 + 4 x300 + 4 x350 + 4 x400
       + 4 x450 + 4 x500 - 5 x550 <= 0
Bounds
 0 <= x1 <= 1
 0 <= x2 <= 1
 0 <= x3 <= 1
 0 <= x4 <= 1
 0 <= x5 <= 1
 0 <= x6 <= 1
 0 <= x7 <= 1
 0 <= x8 <= 1
 0 <= x9 <= 1
 0 <= x10 <= 1
 0 <= x11 <= 1
 0 <= x12 <= 1
 0 <= x13 <= 1
 0 <= x14 <= 1
 0 <= x15 <= 1
 0 <= x16 <= 1
 0 <= x17 <= 1
 0 <= x18 <= 1
 0 <= x19 <= 1
 0 <= x20 <= 1
 0 <= x21 <= 1
 0 <= x22 <= 1
 0 <= x23 <= 1
 0 <= x24 <= 1
 0 <= x25 <= 1
 0 <= x26 <= 1
 0 <= x27 <= 1
 0 <= x28 <= 1
 0 <= x29 <= 1
 0 <= x30 <= 1
 0 <= x31 <= 1
 0 <= x32 <= 1
 0 <= x33 <= 1
 0 <= x34 <= 1
 0 <= x35 <= 1
 0 <= x36 <= 1
 0 <= x37 <= 1
 0 <= x38 <= 1
 0 <= x39 <= 1
 0 <= x40 <= 1
 0 <= x41 <= 1
 0 <= x42 <= 1
 0 <= x43 <= 1
 0 <= x44 <= 1
 0 <= x45 <= 1
 0 <= x46 <= 1
 0 <= x47 <= 1
 0 <= x48 <= 1
 0 <= x49 <= 1
 0 <= x50 <= 1
 0 <= x51 <= 1
 0 <= x52 <= 1
 0 <= x53 <= 1
 0 <= x54 <= 1
 0 <= x55 <= 1
 0 <= x56 <= 1
 0 <= x57 <= 1
 0 <= x58 <= 1
 0 <= x59 <= 1
 0 <= x60 <= 1
 0 <= x61 <= 1
 0 <= x62 <= 1
 0 <= x63 <= 1
 0 <= x64 <= 1
 0 <= x65 <= 1
 0 <= x66 <= 1
 0 <= x67 <= 1
 0 <= x68 <= 1
 0 <= x69 <= 1
 0 <= x70 <= 1
 0 <= x71 <= 1
 0 <= x72 <= 1
 0 <= x73 <= 1
 0 <= x74 <= 1
 0 <= x75 <= 1
 0 <= x76 <= 1
 0 <= x77 <= 1
 0 <= x78 <= 1
 0 <= x79 <= 1
 0 <= x80 <= 1
 0 <= x81 <= 1
 0 <= x82 <= 1
 0 <= x83 <= 1
 0 <= x84 <= 1
 0 <= x85 <= 1
 0 <= x86 <= 1
 0 <= x87 <= 1
 0 <= x88 <= 1
 0 <= x89 <= 1
 0 <= x90 <= 1
 0 <= x91 <= 1
 0 <= x92 <= 1
 0 <= x93 <= 1
 0 <= x94 <= 1
 0 <= x95 <= 1
 0 <= x96 <= 1
 0 <= x97 <= 1
 0 <= x98 <= 1
 0 <= x99 <= 1
 0 <= x100 <= 1
 0 <= x101 <= 1
 0 <= x102 <= 1
 0 <= x103 <= 1
 0 <= x104 <= 1
 0 <= x105 <= 1
 0 <= x106 <= 1
 0 <= x107 <= 1
 0 <= x108 <= 1
 0 <= x109 <= 1
 0 <= x110 <= 1
 0 <= x111 <= 1
 0 <= x112 <= 1
 0 <= x113 <= 1
 0 <= x114 <= 1
 0 <= x115 <= 1
 0 <= x116 <= 1
 0 <= x117 <= 1
 0 <= x118 <= 1
 0 <= x119 <= 1
 0 <= x120 <= 1
 0 <= x121 <= 1
 0 <= x122 <= 1
 0 <= x123 <= 1
 0 <= x124 <= 1
 0 <= x125 <= 1
 0 <= x126 <= 1
 0 <= x127 <= 1
 0 <= x128 <= 1
 0 <= x129 <= 1
 0 <= x130 <= 1
 0 <= x131 <= 1
 0 <= x132 <= 1
 0 <= x133 <= 1
 0 <= x134 <= 1
 0 <= x135 <= 1
 0 <= x136 <= 1
 0 <= x137 <= 1
 0 <= x138 <= 1
 0 <= x139 <= 1
 0 <= x140 <= 1
 0 <= x141 <= 1
 0 <= x142 <= 1
 0 <= x143 <= 1
 0 <= x144 <= 1
 0 <= x145 <= 1
 0 <= x146 <= 1
 0 <= x147 <= 1
 0 <= x148 <= 1
 0 <= x149 <= 1
 0 <= x150 <= 1
 0 <= x151 <= 1
 0 <= x152 <= 1
 0 <= x153 <= 1
 0 <= x154 <= 1
 0 <= x155 <= 1
 0 <= x156 <= 1
 0 <= x157 <= 1
 0 <= x158 <= 1
 0 <= x159 <= 1
 0 <= x160 <= 1
 0 <= x161 <= 1
 0 <= x162 <= 1
 0 <= x163 <= 1
 0 <= x164 <= 1
 0 <= x165 <= 1
 0 <= x166 <= 1
 0 <= x167 <= 1
 0 <= x168 <= 1
 0 <= x169 <= 1
 0 <= x170 <= 1
 0 <= x171 <= 1
 0 <= x172 <= 1
 0 <= x173 <= 1
 0 <= x174 <= 1
 0 <= x175 <= 1
 0 <= x176 <= 1
 0 <= x177 <= 1
 0 <= x178 <= 1
 0 <= x179 <= 1
 0 <= x180 <= 1
 0 <= x181 <= 1
 0 <= x182 <= 1
 0 <= x183 <= 1
 0 <= x184 <= 1
 0 <= x185 <= 1
 0 <= x186 <= 1
 0 <= x187 <= 1
 0 <= x188 <= 1
 0 <= x189 <= 1
 0 <= x190 <= 1
 0 <= x191 <= 1
 0 <= x192 <= 1
 0 <= x193 <= 1
 0 <= x194 <= 1
 0 <= x195 <= 1
 0 <= x196 <= 1
 0 <= x197 <= 1
 0 <= x198 <= 1
 0 <= x199 <= 1
 0 <= x200 <= 1
 0 <= x201 <= 1
 0 <= x202 <= 1
 0 <= x203 <= 1
 0 <= x204 <= 1
 0 <= x205 <= 1
 0 <= x206 <= 1
 0 <= x207 <= 1
 0 <= x208 <= 1
 0 <= x209 <= 1
 0 <= x210 <= 1
 0 <= x211 <= 1
 0 <= x212 <= 1
 0 <= x213 <= 1
 0 <= x214 <= 1
 0 <= x215 <= 1
 0 <= x216 <= 1
 0 <= x217 <= 1
 0 <= x218 <= 1
 0 <= x219 <= 1
 0 <= x220 <= 1
 0 <= x221 <= 1
 0 <= x222 <= 1
 0 <= x223 <= 1
 0 <= x224 <= 1
 0 <= x225 <= 1
 0 <= x226 <= 1
 0 <= x227 <= 1
 0 <= x228 <= 1
 0 <= x229 <= 1
 0 <= x230 <= 1
 0 <= x231 <= 1
 0 <= x232 <= 1
 0 <= x233 <= 1
 0 <= x234 <= 1
 0 <= x235 <= 1
 0 <= x236 <= 1
 0 <= x237 <= 1
 0 <= x238 <= 1
 0 <= x239 <= 1
 0 <= x240 <= 1
 0 <= x241 <= 1
 0 <= x242 <= 1
 0 <= x243 <= 1
 0 <= x244 <= 1
 0 <= x245 <= 1
 0 <= x246 <= 1
 0 <= x247 <= 1
 0 <= x248 <= 1
 0 <= x249 <= 1
 0 <= x250 <= 1
 0 <= x251 <= 1
 0 <= x252 <= 1
 0 <= x253 <= 1
 0 <= x254 <= 1
 0 <= x255 <= 1
 0 <= x256 <= 1
 0 <= x257 <= 1
 0 <= x258 <= 1
 0 <= x259 <= 1
 0 <= x260 <= 1
 0 <= x261 <= 1
 0 <= x262 <= 1
 0 <= x263 <= 1
 0 <= x264 <= 1
 0 <= x265 <= 1
 0 <= x266 <= 1
 0 <= x267 <= 1
 0 <= x268 <= 1
 0 <= x269 <= 1
 0 <= x270 <= 1
 0 <= x271 <= 1
 0 <= x272 <= 1
 0 <= x273 <= 1
 0 <= x274 <= 1
 0 <= x275 <= 1
 0 <= x276 <= 1
 0 <= x277 <= 1
 0 <= x278 <= 1
 0 <= x279 <= 1
 0 <= x280 <= 1
 0 <= x281 <= 1
 0 <= x282 <= 1
 0 <= x283 <= 1
 0 <= x284 <= 1
 0 <= x285 <= 1
 0 <= x286 <= 1
 0 <= x287 <= 1
 0 <= x288 <= 1
 0 <= x289 <= 1
 0 <= x290 <= 1
 0 <= x291 <= 1
 0 <= x292 <= 1
 0 <= x293 <= 1
 0 <= x294 <= 1
 0 <= x295 <= 1
 0 <= x296 <= 1
 0 <= x297 <= 1
 0 <= x298 <= 1
 0 <= x299 <= 1
 0 <= x300 <= 1
 0 <= x301 <= 1
 0 <= x302 <= 1
 0 <= x303 <= 1
 0 <= x304 <= 1
 0 <= x305 <= 1
 0 <= x306 <= 1
 0 <= x307 <= 1
 0 <= x308 <= 1
 0 <= x309 <= 1
 0 <= x310 <= 1
 0 <= x311 <= 1
 0 <= x312 <= 1
 0 <= x313 <= 1
 0 <= x314 <= 1
 0 <= x315 <= 1
 0 <= x316 <= 1
 0 <= x317 <= 1
 0 <= x318 <= 1
 0 <= x319 <= 1
 0 <= x320 <= 1
 0 <= x321 <= 1
 0 <= x322 <= 1
 0 <= x323 <= 1
 0 <= x324 <= 1
 0 <= x325 <= 1
 0 <= x326 <= 1
 0 <= x327 <= 1
 0 <= x328 <= 1
 0 <= x329 <= 1
 0 <= x330 <= 1
 0 <= x331 <= 1
 0 <= x332 <= 1
 0 <= x333 <= 1
 0 <= x334 <= 1
 0 <= x335 <= 1
 0 <= x336 <= 1
 0 <= x337 <= 1
 0 <= x338 <= 1
 0 <= x339 <= 1
 0 <= x340 <= 1
 0 <= x341 <= 1
 0 <= x342 <= 1
 0 <= x343 <= 1
 0 <= x344 <= 1
 0 <= x345 <= 1
 0 <= x346 <= 1
 0 <= x347 <= 1
 0 <= x348 <= 1
 0 <= x349 <= 1
 0 <= x350 <= 1
 0 <= x351 <= 1
 0 <= x352 <= 1
 0 <= x353 <= 1
 0 <= x354 <= 1
 0 <= x355 <= 1
 0 <= x356 <= 1
 0 <= x357 <= 1
 0 <= x358 <= 1
 0 <= x359 <= 1
 0 <= x360 <= 1
 0 <= x361 <= 1
 0 <= x362 <= 1
 0 <= x363 <= 1
 0 <= x364 <= 1
 0 <= x365 <= 1
 0 <= x366 <= 1
 0 <= x367 <= 1
 0 <= x368 <= 1
 0 <= x369 <= 1
 0 <= x370 <= 1
 0 <= x371 <= 1
 0 <= x372 <= 1
 0 <= x373 <= 1
 0 <= x374 <= 1
 0 <= x375 <= 1
 0 <= x376 <= 1
 0 <= x377 <= 1
 0 <= x378 <= 1
 0 <= x379 <= 1
 0 <= x380 <= 1
 0 <= x381 <= 1
 0 <= x382 <= 1
 0 <= x383 <= 1
 0 <= x384 <= 1
 0 <= x385 <= 1
 0 <= x386 <= 1
 0 <= x387 <= 1
 0 <= x388 <= 1
 0 <= x389 <= 1
 0 <= x390 <= 1
 0 <= x391 <= 1
 0 <= x392 <= 1
 0 <= x393 <= 1
 0 <= x394 <= 1
 0 <= x395 <= 1
 0 <= x396 <= 1
 0 <= x397 <= 1
 0 <= x398 <= 1
 0 <= x399 <= 1
 0 <= x400 <= 1
 0 <= x401 <= 1
 0 <= x402 <= 1
 0 <= x403 <= 1
 0 <= x404 <= 1
 0 <= x405 <= 1
 0 <= x406 <= 1
 0 <= x407 <= 1
 0 <= x408 <= 1
 0 <= x409 <= 1
 0 <= x410 <= 1
 0 <= x411 <= 1
 0 <= x412 <= 1
 0 <= x413 <= 1
 0 <= x414 <= 1
 0 <= x415 <= 1
 0 <= x416 <= 1
 0 <= x417 <= 1
 0 <= x418 <= 1
 0 <= x419 <= 1
 0 <= x420 <= 1
 0 <= x421 <= 1
 0 <= x422 <= 1
 0 <= x423 <= 1
 0 <= x424 <= 1
 0 <= x425 <= 1
 0 <= x426 <= 1
 0 <= x427 <= 1
 0 <= x428 <= 1
 0 <= x429 <= 1
 0 <= x430 <= 1
 0 <= x431 <= 1
 0 <= x432 <= 1
 0 <= x433 <= 1
 0 <= x434 <= 1
 0 <= x435 <= 1
 0 <= x436 <= 1
 0 <= x437 <= 1
 0 <= x438 <= 1
 0 <= x439 <= 1
 0 <= x440 <= 1
 0 <= x441 <= 1
 0 <= x442 <= 1
 0 <= x443 <= 1
 0 <= x444 <= 1
 0 <= x445 <= 1
 0 <= x446 <= 1
 0 <= x447 <= 1
 0 <= x448 <= 1
 0 <= x449 <= 1
 0 <= x450 <= 1
 0 <= x451 <= 1
 0 <= x452 <= 1
 0 <= x453 <= 1
 0 <= x454 <= 1
 0 <= x455 <= 1
 0 <= x456 <= 1
 0 <= x457 <= 1
 0 <= x458 <= 1
 0 <= x459 <= 1
 0 <= x460 <= 1
 0 <= x461 <= 1
 0 <= x462 <= 1
 0 <= x463 <= 1
 0 <= x464 <= 1
 0 <= x465 <= 1
 0 <= x466 <= 1
 0 <= x467 <= 1
 0 <= x468 <= 1
 0 <= x469 <= 1
 0 <= x470 <= 1
 0 <= x471 <= 1
 0 <= x472 <= 1
 0 <= x473 <= 1
 0 <= x474 <= 1
 0 <= x475 <= 1
 0 <= x476 <= 1
 0 <= x477 <= 1
 0 <= x478 <= 1
 0 <= x479 <= 1
 0 <= x480 <= 1
 0 <= x481 <= 1
 0 <= x482 <= 1
 0 <= x483 <= 1
 0 <= x484 <= 1
 0 <= x485 <= 1
 0 <= x486 <= 1
 0 <= x487 <= 1
 0 <= x488 <= 1
 0 <= x489 <= 1
 0 <= x490 <= 1
 0 <= x491 <= 1
 0 <= x492 <= 1
 0 <= x493 <= 1
 0 <= x494 <= 1
 0 <= x495 <= 1
 0 <= x496 <= 1
 0 <= x497 <= 1
 0 <= x498 <= 1
 0 <= x499 <= 1
 0 <= x500 <= 1
 0 <= x501 <= 1
 0 <= x502 <= 1
 0 <= x503 <= 1
 0 <= x504 <= 1
 0 <= x505 <= 1
 0 <= x506 <= 1
 0 <= x507 <= 1
 0 <= x508 <= 1
 0 <= x509 <= 1
 0 <= x510 <= 1
 0 <= x511 <= 1
 0 <= x512 <= 1
 0 <= x513 <= 1
 0 <= x514 <= 1
 0 <= x515 <= 1
 0 <= x516 <= 1
 0 <= x517 <= 1
 0 <= x518 <= 1
 0 <= x519 <= 1
 0 <= x520 <= 1
 0 <= x521 <= 1
 0 <= x522 <= 1
 0 <= x523 <= 1
 0 <= x524 <= 1
 0 <= x525 <= 1
 0 <= x526 <= 1
 0 <= x527 <= 1
 0 <= x528 <= 1
 0 <= x529 <= 1
 0 <= x530 <= 1
 0 <= x531 <= 1
 0 <= x532 <= 1
 0 <= x533 <= 1
 0 <= x534 <= 1
 0 <= x535 <= 1
 0 <= x536 <= 1
 0 <= x537 <= 1
 0 <= x538 <= 1
 0 <= x539 <= 1
 0 <= x540 <= 1
 0 <= x541 <= 1
 0 <= x542 <= 1
 0 <= x543 <= 1
 0 <= x544 <= 1
 0 <= x545 <= 1
 0 <= x546 <= 1
 0 <= x547 <= 1
 0 <= x548 <= 1
 0 <= x549 <= 1
 0 <= x550 <= 1
Binaries
 x501  x502  x503  x504  x505  x506  x507  x508  x509  x510  x511  x512  x513 
 x514  x515  x516  x517  x518  x519  x520  x521  x522  x523  x524  x525  x526 
 x527  x528  x529  x530  x531  x532  x533  x534  x535  x536  x537  x538  x539 
 x540  x541  x542  x543  x544  x545  x546  x547  x548  x549  x550 
End
